Grasp exp. instance_n_25_m_5_id_5.lp tipoLifted 0 szPool 5 nIteration 20 alpha 0.6 
Academic license - for non-commercial use only
Read LP format model from file ../input/instancesGenerated/instance_n_25_m_5_id_5.lp
Reading time = 0.00 seconds
: 5 rows, 25 columns, 125 nonzeros
Optimize a model with 5 rows, 25 columns and 125 nonzeros
Variable types: 0 continuous, 25 integer (25 binary)
Coefficient statistics:
  Matrix range     [1e+00, 1e+01]
  Objective range  [1e+00, 1e+01]
  Bounds range     [1e+00, 1e+00]
  RHS range        [5e+01, 7e+01]
Found heuristic solution: objective 66.0000000

Explored 0 nodes (0 simplex iterations) in 0.00 seconds
Thread count was 1 (of 8 available processors)

Solution count 1: 66 
No other solutions better than 0

Solution limit reached
Best objective 6.600000000000e+01, best bound -, gap -
C_1:	 7.00 x_1  = 1.000000 + 8.00 x_2  = 0.000000 + 3.00 x_3  = 0.953878 + 5.00 x_4  = 1.000000 + 2.00 x_5  = 1.000000 + 3.00 x_6  = 1.000000 + 6.00 x_7  = 0.000000 + 4.00 x_8  = 1.000000 + 2.00 x_9  = 0.000000 + 7.00 x_10  = 0.000000 + 3.00 x_11  = 0.000000 + 8.00 x_12  = 0.571279 + 1.00 x_13  = 1.000000 + 2.00 x_14  = 0.000000 + 1.00 x_15  = 0.000000 + 1.00 x_16  = 0.670860 + 5.00 x_17  = 0.716981 + 9.00 x_18  = 0.000000 + 2.00 x_19  = 0.000000 + 1.00 x_20  = 1.000000 + 1.00 x_21  = 1.000000 + 9.00 x_22  = 0.000000 + 6.00 x_23  = 1.000000 + 1.00 x_24  = 1.000000 + 4.00 x_25  = 0.000000 <= 50.00
C_2:	 4.00 x_1  = 1.000000 + 9.00 x_2  = 0.000000 + 8.00 x_3  = 0.953878 + 2.00 x_4  = 1.000000 + 6.00 x_5  = 1.000000 + 3.00 x_6  = 1.000000 + 8.00 x_7  = 0.000000 + 5.00 x_8  = 1.000000 + 5.00 x_9  = 0.000000 + 4.00 x_10  = 0.000000 + 8.00 x_11  = 0.000000 + 10.00 x_12  = 0.571279 + 9.00 x_13  = 1.000000 + 2.00 x_14  = 0.000000 + 1.00 x_15  = 0.000000 + 5.00 x_16  = 0.670860 + 6.00 x_17  = 0.716981 + 10.00 x_18  = 0.000000 + 7.00 x_19  = 0.000000 + 7.00 x_20  = 1.000000 + 2.00 x_21  = 1.000000 + 10.00 x_22  = 0.000000 + 3.00 x_23  = 1.000000 + 10.00 x_24  = 1.000000 + 1.00 x_25  = 0.000000 <= 72.00
C_3:	 3.00 x_1  = 1.000000 + 1.00 x_2  = 0.000000 + 9.00 x_3  = 0.953878 + 9.00 x_4  = 1.000000 + 1.00 x_5  = 1.000000 + 4.00 x_6  = 1.000000 + 4.00 x_7  = 0.000000 + 1.00 x_8  = 1.000000 + 2.00 x_9  = 0.000000 + 5.00 x_10  = 0.000000 + 8.00 x_11  = 0.000000 + 4.00 x_12  = 0.571279 + 4.00 x_13  = 1.000000 + 4.00 x_14  = 0.000000 + 1.00 x_15  = 0.000000 + 7.00 x_16  = 0.670860 + 2.00 x_17  = 0.716981 + 10.00 x_18  = 0.000000 + 5.00 x_19  = 0.000000 + 3.00 x_20  = 1.000000 + 2.00 x_21  = 1.000000 + 1.00 x_22  = 0.000000 + 8.00 x_23  = 1.000000 + 1.00 x_24  = 1.000000 + 7.00 x_25  = 0.000000 <= 53.00
C_4:	 6.00 x_1  = 1.000000 + 2.00 x_2  = 0.000000 + 6.00 x_3  = 0.953878 + 8.00 x_4  = 1.000000 + 3.00 x_5  = 1.000000 + 6.00 x_6  = 1.000000 + 10.00 x_7  = 0.000000 + 5.00 x_8  = 1.000000 + 6.00 x_9  = 0.000000 + 8.00 x_10  = 0.000000 + 7.00 x_11  = 0.000000 + 10.00 x_12  = 0.571279 + 1.00 x_13  = 1.000000 + 7.00 x_14  = 0.000000 + 1.00 x_15  = 0.000000 + 7.00 x_16  = 0.670860 + 4.00 x_17  = 0.716981 + 6.00 x_18  = 0.000000 + 10.00 x_19  = 0.000000 + 8.00 x_20  = 1.000000 + 8.00 x_21  = 1.000000 + 6.00 x_22  = 0.000000 + 1.00 x_23  = 1.000000 + 7.00 x_24  = 1.000000 + 2.00 x_25  = 0.000000 <= 72.00
C_5:	 3.00 x_1  = 1.000000 + 8.00 x_2  = 0.000000 + 2.00 x_3  = 0.953878 + 2.00 x_4  = 1.000000 + 10.00 x_5  = 1.000000 + 1.00 x_6  = 1.000000 + 7.00 x_7  = 0.000000 + 3.00 x_8  = 1.000000 + 6.00 x_9  = 0.000000 + 6.00 x_10  = 0.000000 + 8.00 x_11  = 0.000000 + 4.00 x_12  = 0.571279 + 5.00 x_13  = 1.000000 + 2.00 x_14  = 0.000000 + 1.00 x_15  = 0.000000 + 5.00 x_16  = 0.670860 + 9.00 x_17  = 0.716981 + 2.00 x_18  = 0.000000 + 7.00 x_19  = 0.000000 + 7.00 x_20  = 1.000000 + 4.00 x_21  = 1.000000 + 4.00 x_22  = 0.000000 + 3.00 x_23  = 1.000000 + 10.00 x_24  = 1.000000 + 5.00 x_25  = 0.000000 <= 62.00
Solution initial: 105.818658 
Number Constraints Used in Cover:5
GRASP Method!
Number cuts repeat: 0
value: 105.818658
Number Constraints Used in Cover:10
GRASP Method!
Number cuts repeat: 0
value: 105.818658
Number Constraints Used in Cover:12
GRASP Method!
Number cuts repeat: 0
value: 105.818658
Number Constraints Used in Cover:17
GRASP Method!
Number cuts repeat: 0
value: 105.818658
Number Constraints Used in Cover:22
GRASP Method!
Number cuts repeat: 0
value: 105.818658
Number Constraints Used in Cover:27
GRASP Method!
Number cuts repeat: 0
value: 105.818658
Number Constraints Used in Cover:29
GRASP Method!
Number cuts repeat: 0
value: 105.818658
Number Constraints Used in Cover:33
GRASP Method!
Number cuts repeat: 0
value: 105.818658
Number Constraints Used in Cover:35
GRASP Method!
Number cuts repeat: 0
value: 105.818658
Number Constraints Used in Cover:40
GRASP Method!
Number cuts repeat: 0
value: 105.818658
Number Constraints Used in Cover:42
GRASP Method!
Number cuts repeat: 0
value: 105.818658
Number Constraints Used in Cover:47
GRASP Method!
Number cuts repeat: 0
value: 105.818658
Number Constraints Used in Cover:52
GRASP Method!
Number cuts repeat: 0
value: 105.818658
Number Constraints Used in Cover:54
GRASP Method!
Number cuts repeat: 0
value: 105.818658
Number Constraints Used in Cover:54
GRASP Method!
Number cuts repeat: 0
value: 105.818658
Number Constraints Used in Cover:59
GRASP Method!
Number cuts repeat: 0
value: 105.818658
Number Constraints Used in Cover:61
GRASP Method!
Number cuts repeat: 0
value: 105.818658
Number Constraints Used in Cover:64
GRASP Method!
Number cuts repeat: 0
value: 105.818658
Number Constraints Used in Cover:66
GRASP Method!
Number cuts repeat: 0
value: 105.818658
Number Constraints Used in Cover:69
GRASP Method!
Number cuts repeat: 0
value: 105.818658
Number Constraints Used in Cover:72
GRASP Method!
Number cuts repeat: 0
value: 105.818658
Number Constraints Used in Cover:74
GRASP Method!
Number cuts repeat: 0
value: 105.818658
Number Constraints Used in Cover:76
GRASP Method!
Number cuts repeat: 0
value: 105.818658
Number Constraints Used in Cover:79
GRASP Method!
Number cuts repeat: 0
value: 105.818658
Number Constraints Used in Cover:82
GRASP Method!
Number cuts repeat: 0
value: 105.818658
Number Constraints Used in Cover:85
GRASP Method!
Number cuts repeat: 0
value: 105.818658
Number Constraints Used in Cover:87
GRASP Method!
Number cuts repeat: 0
value: 105.818658
Number Constraints Used in Cover:89
GRASP Method!
Number cuts repeat: 0
value: 105.818658
Number Constraints Used in Cover:92
GRASP Method!
Number cuts repeat: 0
value: 105.818658
Number Constraints Used in Cover:97
GRASP Method!
Number cuts repeat: 0
value: 105.818658
Number Constraints Used in Cover:106
GRASP Method!
Number cuts repeat: 0
value: 105.818658
Number Constraints Used in Cover:110
GRASP Method!
Number cuts repeat: 0
value: 105.818658
Number Constraints Used in Cover:116
GRASP Method!
Number cuts repeat: 0
value: 105.818658
Number Constraints Used in Cover:123
GRASP Method!
Number cuts repeat: 0
value: 105.818658
Number Constraints Used in Cover:130
GRASP Method!
Number cuts repeat: 0
value: 105.818658
Number Constraints Used in Cover:133
GRASP Method!
Number cuts repeat: 0
value: 105.818658
Number Constraints Used in Cover:142
GRASP Method!
Number cuts repeat: 0
value: 105.818658
Number Constraints Used in Cover:147
GRASP Method!
Number cuts repeat: 0
value: 105.818658
Number Constraints Used in Cover:151
GRASP Method!
Number cuts repeat: 0
value: 105.818658
Number Constraints Used in Cover:155
GRASP Method!
Number cuts repeat: 0
value: 105.818658
Number Constraints Used in Cover:161
GRASP Method!
Number cuts repeat: 0
value: 105.818658
Number Constraints Used in Cover:170
GRASP Method!
Number cuts repeat: 0
value: 105.818658
Number Constraints Used in Cover:176
GRASP Method!
Number cuts repeat: 0
value: 105.818658
Number Constraints Used in Cover:182
GRASP Method!
Number cuts repeat: 0
value: 105.818658
Number Constraints Used in Cover:191
GRASP Method!
Number cuts repeat: 0
value: 105.818658
Number Constraints Used in Cover:199
GRASP Method!
Number cuts repeat: 0
value: 105.818658
Number Constraints Used in Cover:206
GRASP Method!
Number cuts repeat: 0
value: 105.818658
Number Constraints Used in Cover:211
GRASP Method!
Number cuts repeat: 0
value: 105.818658
Number Constraints Used in Cover:219
GRASP Method!
Number cuts repeat: 0
value: 105.818658
Number Constraints Used in Cover:227
GRASP Method!
Number cuts repeat: 0
value: 105.818658
Number Constraints Used in Cover:236
GRASP Method!
Number cuts repeat: 0
value: 105.818658
Number Constraints Used in Cover:243
GRASP Method!
Number cuts repeat: 0
value: 105.818658
Number Constraints Used in Cover:249
GRASP Method!
Number cuts repeat: 0
value: 105.818658
Number Constraints Used in Cover:255
GRASP Method!
Number cuts repeat: 0
value: 105.818658
Number Constraints Used in Cover:261
GRASP Method!
Number cuts repeat: 0
value: 105.818658
Number Constraints Used in Cover:269
GRASP Method!
Number cuts repeat: 0
value: 105.818658
Number Constraints Used in Cover:278
GRASP Method!
Number cuts repeat: 0
value: 105.818658
Number Constraints Used in Cover:285
GRASP Method!
Number cuts repeat: 0
value: 105.818658
Number Constraints Used in Cover:289
GRASP Method!
Number cuts repeat: 0
value: 105.818658
Number Constraints Used in Cover:302
GRASP Method!
Number cuts repeat: 0
value: 105.818658
Number Constraints Used in Cover:308
GRASP Method!
Number cuts repeat: 0
value: 105.818658
Number Constraints Used in Cover:313
GRASP Method!
Number cuts repeat: 0
value: 105.818658
Number Constraints Used in Cover:323
GRASP Method!
Number cuts repeat: 0
value: 105.818658
Number Constraints Used in Cover:329
GRASP Method!
Number cuts repeat: 0
value: 105.818658
Number Constraints Used in Cover:339
GRASP Method!
Number cuts repeat: 0
value: 105.818658
Number Constraints Used in Cover:354
GRASP Method!
Number cuts repeat: 0
value: 105.818658
Number Constraints Used in Cover:370
GRASP Method!
Number cuts repeat: 0
value: 105.818658
Number Constraints Used in Cover:382
GRASP Method!
Number cuts repeat: 0
value: 105.818658
Number Constraints Used in Cover:392
GRASP Method!
Number cuts repeat: 0
value: 105.818658
Number Constraints Used in Cover:412
GRASP Method!
Number cuts repeat: 0
value: 105.818658
Number Constraints Used in Cover:432
GRASP Method!
Number cuts repeat: 0
value: 105.818658
Number Constraints Used in Cover:449
GRASP Method!
Number cuts repeat: 0
value: 105.818658
Number Constraints Used in Cover:462
GRASP Method!
Number cuts repeat: 0
value: 105.818658
Number Constraints Used in Cover:479
GRASP Method!
Number cuts repeat: 0
value: 105.818658
Number Constraints Used in Cover:491
GRASP Method!
Number cuts repeat: 0
value: 105.818658
Number Constraints Used in Cover:502
GRASP Method!
Number cuts repeat: 0
value: 105.818658
Number Constraints Used in Cover:516
GRASP Method!
Number cuts repeat: 0
value: 105.818658
Number Constraints Used in Cover:530
GRASP Method!
Number cuts repeat: 0
value: 105.818658
Number Constraints Used in Cover:540
GRASP Method!
Number cuts repeat: 0
value: 105.818658
Number Constraints Used in Cover:551
GRASP Method!
Number cuts repeat: 0
value: 105.818658
Number Constraints Used in Cover:557
GRASP Method!
Number cuts repeat: 0
value: 105.818658
Number Constraints Used in Cover:565
GRASP Method!
Number cuts repeat: 0
value: 105.818658
Number Constraints Used in Cover:575
GRASP Method!
Number cuts repeat: 0
value: 105.818658
Number Constraints Used in Cover:586
GRASP Method!
Number cuts repeat: 0
value: 105.818658
Number Constraints Used in Cover:601
GRASP Method!
Number cuts repeat: 0
value: 105.818658
Number Constraints Used in Cover:612
GRASP Method!
Number cuts repeat: 0
value: 105.818658
Number Constraints Used in Cover:622
GRASP Method!
Number cuts repeat: 0
value: 105.818658
Number Constraints Used in Cover:637
GRASP Method!
Number cuts repeat: 0
value: 105.818658
Number Constraints Used in Cover:654
GRASP Method!
Number cuts repeat: 0
value: 105.818658
Number Constraints Used in Cover:658
GRASP Method!
Number cuts repeat: 0
value: 105.818658
Number Constraints Used in Cover:675
GRASP Method!
Number cuts repeat: 0
value: 105.818658
Number Constraints Used in Cover:684
GRASP Method!
Number cuts repeat: 0
value: 105.818658
Number Constraints Used in Cover:693
GRASP Method!
Number cuts repeat: 0
value: 105.818658
Number Constraints Used in Cover:703
GRASP Method!
Number cuts repeat: 0
value: 105.818658
Number Constraints Used in Cover:712
GRASP Method!
Number cuts repeat: 0
value: 105.818658
Number Constraints Used in Cover:728
GRASP Method!
Number cuts repeat: 0
value: 105.818658
Number Constraints Used in Cover:736
GRASP Method!
Number cuts repeat: 0
value: 105.818658
Number Cuts Final: 744
